Traveling Salesman Problem/TSP_generados/Aleatorio1621105305_19.tsp
NAME: Aleatorio1621105305_19.tsp
COMMENT: Randomly generated scenario
TYPE: TSP
DIMENSION: 19
EDGE_WEIGHT_TYPE: ATT
NODE_COORD_SECTION
1 43.17 40.96
2 21.78 25.87
3 36.54 30.34
4 22.2 33.88
5 23.76 43.83
6 18.76 0.24
7 11.38 22.24
8 34.58 39.55
9 22.74 5.5
10 45.51 13.09
11 38.06 48.45
12 18.96 5.11
13 32.33 42.58
14 30.05 10.79
15 23.82 7.93
16 47.72 36.14
17 35.08 5.91
18 9.08 28.4
19 44.38 24.16
