Traveling Salesman Problem/TSP_generados/Aleatorio1621105305_19.opt.tour
NAME: Aleatorio1621105305_19.opt.tour
COMMENT: Optimal solution for Aleatorio1621105305_19 (168.39643569943408)
TYPE: TOUR
DIMENSION: 19
TOUR_SECTION
1 16 3 19 10 17 14 15 9 6 12 7 18 2 4 5 13 8 11
-1
EOF
